NAME 
ROWS
 N  OBJ
 L  R0      
 E  R1      
 E  R2      
 E  R3      
 E  R4      
 E  R5      
 E  R6      
 E  R7      
 E  R8      
 E  R9      
 E  R10     
 E  R11     
 E  R12     
 E  R13     
 E  R14     
 E  R15     
 E  R16     
 E  R17     
 E  R18     
 E  R19     
 E  R20     
 E  R21     
 E  R22     
 E  R23     
 E  R24     
 E  R25     
 E  R26     
 E  R27     
 E  R28     
 E  R29     
 E  R30     
COLUMNS
    MARKER    'MARKER'                 'INTORG'
    I0(3)     OBJ       -78
    I0(3)     R0        173
    I0(3)     R1        17
    I0(3)     R30       1
    I1(3)     OBJ       -26
    I1(3)     R0        -170
    I1(3)     R2        12
    I1(3)     R30       1
    I2(3)     OBJ       -3
    I2(3)     R0        -64
    I2(3)     R3        8
    I2(3)     R30       1
    I3(3)     OBJ       185
    I3(3)     R0        -151
    I3(3)     R4        15
    I3(3)     R30       1
    I4(3)     OBJ       160
    I4(3)     R0        122
    I4(3)     R5        10
    I4(3)     R30       1
    I5(3)     OBJ       -113
    I5(3)     R0        143
    I5(3)     R6        4
    I5(3)     R30       1
    I6(3)     OBJ       106
    I6(3)     R0        -32
    I6(3)     R7        -1
    I6(3)     R30       1
    I7(3)     OBJ       193
    I7(3)     R0        43
    I7(3)     R8        7
    I7(3)     R30       1
    I8(3)     OBJ       -142
    I8(3)     R0        -39
    I8(3)     R9        16
    I8(3)     R30       1
    I9(3)     OBJ       52
    I9(3)     R0        88
    I9(3)     R10       3
    I9(3)     R30       1
    I10(3)    OBJ       159
    I10(3)    R0        -74
    I10(3)    R11       3
    I10(3)    R30       1
    I11(3)    OBJ       -91
    I11(3)    R0        -197
    I11(3)    R12       7
    I11(3)    R30       1
    I12(3)    OBJ       -106
    I12(3)    R0        170
    I12(3)    R13       10
    I12(3)    R30       1
    I13(3)    OBJ       111
    I13(3)    R0        171
    I13(3)    R14       16
    I13(3)    R30       1
    I14(3)    OBJ       113
    I14(3)    R0        7
    I14(3)    R15       14
    I14(3)    R30       1
    I15(3)    OBJ       160
    I15(3)    R0        -102
    I15(3)    R16       9
    I15(3)    R30       1
    I16(3)    OBJ       -36
    I16(3)    R0        -105
    I16(3)    R17       5
    I16(3)    R30       1
    I17(3)    OBJ       -156
    I17(3)    R0        55
    I17(3)    R18       19
    I17(3)    R30       1
    I18(3)    OBJ       94
    I18(3)    R0        -150
    I18(3)    R19       17
    I18(3)    R30       1
    I19(3)    OBJ       -74
    I19(3)    R0        -55
    I19(3)    R20       9
    I19(3)    R30       1
    I20(2)    OBJ       -148
    I20(2)    R0        40
    I20(2)    R30       1
    I21(3)    OBJ       187
    I21(3)    R0        17
    I21(3)    R22       19
    I21(3)    R30       1
    I22(3)    OBJ       -200
    I22(3)    R0        -127
    I22(3)    R23       18
    I22(3)    R30       1
    I23(3)    OBJ       -17
    I23(3)    R0        -13
    I23(3)    R24       8
    I23(3)    R30       1
    I24(3)    OBJ       -179
    I24(3)    R0        -24
    I24(3)    R25       2
    I24(3)    R30       1
    I25(3)    OBJ       -51
    I25(3)    R0        -49
    I25(3)    R26       5
    I25(3)    R30       1
    I26(3)    OBJ       1
    I26(3)    R0        -86
    I26(3)    R27       19
    I26(3)    R30       1
    I27(3)    OBJ       -144
    I27(3)    R0        22
    I27(3)    R28       -1
    I27(3)    R30       1
    MARKER    'MARKER'                 'INTEND'
    C28(28)   OBJ       -8
    C28(28)   R0        -7
    C28(28)   R1        5
    C28(28)   R2        9
    C28(28)   R3        17
    C28(28)   R4        14
    C28(28)   R5        18
    C28(28)   R6        7
    C28(28)   R7        3
    C28(28)   R8        3
    C28(28)   R9        13
    C28(28)   R10       17
    C28(28)   R11       6
    C28(28)   R12       -1
    C28(28)   R13       11
    C28(28)   R15       12
    C28(28)   R16       7
    C28(28)   R17       14
    C28(28)   R18       19
    C28(28)   R20       16
    C28(28)   R21       2
    C28(28)   R22       15
    C28(28)   R23       9
    C28(28)   R24       14
    C28(28)   R25       9
    C28(28)   R26       6
    C28(28)   R27       10
    C28(28)   R28       4
    C28(28)   R29       4
    C29(30)   OBJ       4
    C29(30)   R0        1
    C29(30)   R1        6
    C29(30)   R2        6
    C29(30)   R3        18
    C29(30)   R4        3
    C29(30)   R5        7
    C29(30)   R6        6
    C29(30)   R7        10
    C29(30)   R8        7
    C29(30)   R9        8
    C29(30)   R10       2
    C29(30)   R11       5
    C29(30)   R12       2
    C29(30)   R13       9
    C29(30)   R14       10
    C29(30)   R15       -1
    C29(30)   R16       6
    C29(30)   R17       7
    C29(30)   R18       -1
    C29(30)   R19       13
    C29(30)   R20       2
    C29(30)   R21       9
    C29(30)   R22       6
    C29(30)   R23       6
    C29(30)   R24       8
    C29(30)   R25       1
    C29(30)   R26       8
    C29(30)   R27       18
    C29(30)   R28       -1
    C29(30)   R29       6
    C30(1)    R1        1
    C31(1)    R2        1
    C32(1)    R3        1
    C33(1)    R4        1
    C34(1)    R5        1
    C35(1)    R6        1
    C36(1)    R7        1
    C37(1)    R8        1
    C38(1)    R9        1
    C39(1)    R10       1
    C40(1)    R11       1
    C41(1)    R12       1
    C42(1)    R13       1
    C43(1)    R14       1
    C44(1)    R15       1
    C45(1)    R16       1
    C46(1)    R17       1
    C47(1)    R18       1
    C48(1)    R19       1
    C49(1)    R20       1
    C50(1)    R21       1
    C51(1)    R22       1
    C52(1)    R23       1
    C53(1)    R24       1
    C54(1)    R25       1
    C55(1)    R26       1
    C56(1)    R27       1
    C57(1)    R28       1
    C58(1)    R29       1
    C59(1)    R30       1
RHS
    RHS1      R0        2.1631578947368425e+01
    RHS1      R1        55
    RHS1      R2        59
    RHS1      R3        60
    RHS1      R4        74
    RHS1      R5        79
    RHS1      R6        79
    RHS1      R7        86
    RHS1      R8        52
    RHS1      R9        69
    RHS1      R10       66
    RHS1      R11       85
    RHS1      R12       72
    RHS1      R13       78
    RHS1      R14       62
    RHS1      R15       66
    RHS1      R16       62
    RHS1      R17       62
    RHS1      R18       77
    RHS1      R19       90
    RHS1      R20       88
    RHS1      R21       65
    RHS1      R22       76
    RHS1      R23       57
    RHS1      R24       77
    RHS1      R25       75
    RHS1      R26       63
    RHS1      R27       99
    RHS1      R28       54
    RHS1      R29       90
    RHS1      R30       9
BOUNDS
 UP BND1      I0(3)     1
 UP BND1      I1(3)     1
 UP BND1      I2(3)     1
 UP BND1      I3(3)     1
 UP BND1      I4(3)     1
 UP BND1      I5(3)     1
 UP BND1      I6(3)     1
 UP BND1      I7(3)     1
 UP BND1      I8(3)     1
 UP BND1      I9(3)     1
 UP BND1      I10(3)    1
 UP BND1      I11(3)    1
 UP BND1      I12(3)    1
 UP BND1      I13(3)    1
 UP BND1      I14(3)    1
 UP BND1      I15(3)    1
 UP BND1      I16(3)    1
 UP BND1      I17(3)    1
 UP BND1      I18(3)    1
 UP BND1      I19(3)    1
 UP BND1      I20(2)    1
 UP BND1      I21(3)    1
 UP BND1      I22(3)    1
 UP BND1      I23(3)    1
 UP BND1      I24(3)    1
 UP BND1      I25(3)    1
 UP BND1      I26(3)    1
 UP BND1      I27(3)    1
ENDATA
